
Value of objective function: 2.09917292

Actual values of the variables:
pL1_div_from_law          2.09917
comp_pos0                 0.30184
comp_neg0                       0
comp_pos1                0.277179
comp_neg1                       0
comp_pos2                0.185476
comp_neg2                       0
comp_pos3                0.128003
comp_neg3                       0
comp_pos4                0.189877
comp_neg4                       0
comp_pos5                       0
comp_neg5                       0
comp_pos6                0.461103
comp_neg6                       0
comp_pos7                0.206941
comp_neg7                       0
comp_pos8                0.212309
comp_neg8                       0
comp_pos9               0.0320974
comp_neg9                       0
comp_pos10               0.104348
comp_neg10                      0
comp_pos11                      0
comp_neg11                      0
comp_pos12                      0
comp_neg12                      0
comp_pos13                      0
comp_neg13                      0
z_c0_t0               1.32138e+10
p0_c0_t0              1.17466e+09
p1_c0_t0              1.05272e+08
p2_c0_t0              1.55556e+10
p3_c0_t0              3.66713e+08
diff0                 3.98846e+09
normdiff0                 0.30184
z_c0_t1               1.47752e+10
p0_c0_t1              1.01051e+09
p1_c0_t1              1.16885e+08
p2_c0_t1              1.73042e+10
p3_c0_t1               4.3899e+08
diff1                 4.09538e+09
normdiff1                0.277179
z_c1_t0               1.65566e+10
p0_c1_t0              1.18766e+09
p1_c1_t0              1.35265e+08
p2_c1_t0              1.81438e+10
p3_c1_t0              1.60697e+08
diff2                 3.07086e+09
normdiff2                0.185476
z_c1_t1               1.94959e+10
p0_c1_t1              1.18496e+09
p1_c1_t1              1.90527e+08
p2_c1_t1              2.04591e+10
p3_c1_t1              1.56817e+08
diff3                 2.49553e+09
normdiff3                0.128003
z_c2_t0               7.24754e+09
p0_c2_t0              4.05218e+08
p1_c2_t0              5.51971e+07
p2_c2_t0              8.02121e+09
p3_c2_t0              1.42053e+08
diff4                 1.37614e+09
normdiff4                0.189877
z_c2_t1               7.97123e+09
p0_c2_t1               3.2892e+08
p1_c2_t1              6.45183e+07
p2_c2_t1              7.47149e+09
p3_c2_t1              1.06301e+08
diff5                           0
normdiff5                       0
z_c3_t0               1.22612e+10
p0_c3_t0              7.33136e+08
p1_c3_t0              9.43659e+07
p2_c3_t0              1.64863e+10
p3_c3_t0              6.01073e+08
diff6                 5.65366e+09
normdiff6                0.461103
z_c3_t1               1.42798e+10
p0_c3_t1              8.20956e+08
p1_c3_t1              9.56852e+07
p2_c3_t1              1.58594e+10
p3_c3_t1              4.58761e+08
diff7                 2.95507e+09
normdiff7                0.206941
z_c4_t0               7.97197e+09
p0_c4_t0              3.23588e+08
p1_c4_t0              1.05596e+08
p2_c4_t0              9.12126e+09
p3_c4_t0              1.14043e+08
diff8                 1.69252e+09
normdiff8                0.212309
z_c4_t1                8.9819e+09
p0_c4_t1              3.31258e+08
p1_c4_t1              9.62536e+07
p2_c4_t1              8.77012e+09
p3_c4_t1              7.25635e+07
diff9                 2.88296e+08
normdiff9               0.0320974
z_c5_t0               1.00642e+10
p0_c5_t0              5.70636e+08
p1_c5_t0              8.82169e+07
p2_c5_t0              1.04052e+10
p3_c5_t0              5.03208e+07
diff10                1.05017e+09
normdiff10               0.104348
z_c5_t1                1.2016e+10
p0_c5_t1              4.16836e+08
p1_c5_t1              8.82549e+07
p2_c5_t1              1.13843e+10
p3_c5_t1              1.26593e+08
diff11                          0
normdiff11                      0
z_c6_t0               1.81204e+10
p0_c6_t0              1.04193e+09
p1_c6_t0              1.12562e+08
p2_c6_t0              1.68016e+10
p3_c6_t0              1.64267e+08
diff12                          0
normdiff12                      0
z_c6_t1               2.06345e+10
p0_c6_t1              1.10916e+09
p1_c6_t1              1.03172e+08
p2_c6_t1              1.93146e+10
p3_c6_t1              1.07527e+08
diff13                          0
normdiff13                      0
